(declare-fun b () String)
(declare-fun BmULJuj_new () String)
(declare-fun a () String)
(declare-fun shifted1_T2_2 () String)
(declare-fun e () String)
(declare-fun shifted2_value () String)
(assert (or (and (= (= "" e) (= e "")) (and (and (and (and (and (and (and (and (and (and (and (and (and (and (and (and (and (and (and (and (and (and (and (and (and (and (and (and (and (and (and (and (and (and (and (and (and (and (and (and (and (and (and (and (and (and (and (and (and (and (and (and (and (and (and (and (and (and (and (and (and (and (and (and (and (and (and (and (and (and (and (and (and (and (and (and (and (and (and (and (and (and (and (and (and (and (and (and (and (and (and (and (and (and (and (and (and (and (and (and (and (and (and (and (and (and (and (and (and (and (and (and (and (and (and (and (and (and (and (and (and (and (and (and (and (and (and (and (and (and (and (and (and (and (and (and (and (and (and (and (and (and (and (and (and (and (and (and (and (and (and (and (and (and (and (and (and (and (and (and (and (and (and (and (and (and (and (and (and (and (and (and (and (and (and (and (and (and (and (and (and (and (and (and (and (and (and (and (and (and (and (and (and (and (and (and (and (and (and (and (and (and (and (and (and (and (and (and (and (and (and (and (and (and (and (and (and (and (and (and (and (and (and (and (and (and (and (and (and (and (and (and (and (and (and (and (and (and (and (and (and (and (and (and (and (and (and (and (and (and (and (and (and (and (and (and (and (and (and (and (and (and (and (and (and (and (and (and (and (and (and (and (and (and (and (and (and (and (and (and (and (and (and (and (and (and (and (and (and (and (and (and (and (and (and (and (and (and (and (and (and (and (and (and (and (and (and (and (and (and (and (and (and (and (and (and (and (and (and (and (and (and (and (and (and (and (and (and (and (and (and (and (and (and (and (and (and (and (and (and (and (and (and (and (not (not (= (ite (= (str.at (str.substr (str.substr BmULJuj_new (str.len shifted1_T2_2) (str.len shifted2_value)) 0 (- (- (str.len (str.substr BmULJuj_new 0 (str.len shifted2_value)))))) 0) "") 1 0) 0)))))) (not (not (= (ite (= (str.len (str.substr (str.substr b (str.len a) (str.len shifted2_value)) 0 (- (- (str.len (str.substr BmULJuj_new (str.len shifted1_T2_2) (str.len shifted2_value))) 1) 0))) 0) 1 0) 0)))) (not (= (ite (= (str.at (str.substr BmULJuj_new 0 (str.len shifted2_value)) 0) "\n") 1 0) 0))) (= 0 0))) (= (ite (= (str.at (str.substr BmULJuj_new (str.len shifted1_T2_2) (str.len shifted2_value)) 0) "\r") 1 0) 0)) (= (ite (= (str.at shifted2_value 0) "\n") 1 0) 0)) (= (ite (= (str.at (str.substr b (str.len a) (str.len (str.substr BmULJuj_new (str.len shifted1_T2_2) (str.len shifted2_value)))) 0) "\t") 1 0) 0)) (= (ite (= (str.at shifted2_value 0) " ") 1 0) 0)) (= (ite (= (str.len (str.substr b (str.len a) (str.len shifted2_value))) 0) 1 0) 0))))))))))))))))))))))))))))))))))))) (>= (- (str.len (str.substr shifted2_value 0 (- (- (str.len (str.substr BmULJuj_new (str.len shifted1_T2_2) (str.len shifted2_value))) 1) 0))) (+ 0 1)) 0))))))))))))))))))))))))))))))))) (>= 0 0))))))))))))))))))))))))))))))))))))))))) (>= (- (+ (str.indexof (str.substr (str.substr b 0 (str.len shifted2_value)) 0 (- (- (str.len (str.substr b (str.len a) (str.len shifted2_value)))))) " " 0) 1)) 0))))))))))))))))))))))))))))))))))))))))))))))))))))))))))))))))))))))))))))))))))))))))))))))))))))))))))))))))))))))) (>= (- (str.indexof (str.substr shifted2_value 0 (- (- (str.len shifted2_value) 1) 0)) " " 0) 0) 0)))))))))))))))))))))))))))))))))))))))))))))))))))))))))))))))))))))))))))))))))))))))))))))))))))))))))))))))
(assert (= b (str.++ a shifted2_value) (str.++ shifted1_T2_2 shifted2_value)))
(check-sat)
